\ENCODING=ISO-8859-1
\Problem name: IloCplex

Maximize
 obj1: 0.0614035087719298 D_1 + 0.0394736842105263 D_2 + 0.0263157894736842 D_3
       + 0.0307017543859649 D_4 + 0.0131578947368421 D_5
Subject To
 c1: 180 D_1 + 120 D_2 + 80 D_3 + 90 D_4 + 40 D_5 <= 500
Bounds
      D_1 >= 0
      D_2 >= 0
      D_3 >= 0
      D_4 >= 0
      D_5 >= 0
Generals
 D_1  D_2  D_3  D_4  D_5 
End
